# Solution for model r5_t9_m0_4
# Finished Task: 9 / 9
# Makespan: 536.0, Total Distance: 223.0, Total Time: 2.4525
# R O S F
0 0 12 83.0 83.0
1 1 9 107.0 107.0
2 2 10 49.0 49.0
3 3 11 154.0 154.0
4 4 5 116.0 116.0
5 4 -1 505.0 536.0
6 3 -1 462.0 501.0
7 1 8 414.0 441.0
8 1 -1 501.0 536.0
9 1 13 310.0 330.0
10 2 -1 441.0 462.0
11 3 6 404.0 441.0
12 0 -1 275.0 310.0
13 1 7 371.0 402.0
